c Generated map
c Size: 12 * 12, weights in range: 1 to 10, walls: False, with ratio 0.0
c dim 4 of 5
c
p sp 144 264
c graph contains 144 nodes and 264 arcs
c
a 1 13 8
a 13 1 8
a 1 2 10
a 2 1 10
a 2 14 10
a 14 2 10
a 2 3 9
a 3 2 9
a 3 15 1
a 15 3 1
a 3 4 4
a 4 3 4
a 4 16 10
a 16 4 10
a 4 5 3
a 5 4 3
a 5 17 1
a 17 5 1
a 5 6 3
a 6 5 3
a 6 18 4
a 18 6 4
a 6 7 4
a 7 6 4
a 7 19 7
a 19 7 7
a 7 8 1
a 8 7 1
a 8 20 6
a 20 8 6
a 8 9 2
a 9 8 2
a 9 21 1
a 21 9 1
a 9 10 6
a 10 9 6
a 10 22 9
a 22 10 9
a 10 11 5
a 11 10 5
a 11 23 2
a 23 11 2
a 11 12 3
a 12 11 3
a 12 24 2
a 24 12 2
a 13 25 5
a 25 13 5
a 13 14 4
a 14 13 4
a 14 26 4
a 26 14 4
a 14 15 10
a 15 14 10
a 15 27 9
a 27 15 9
a 15 16 5
a 16 15 5
a 16 28 10
a 28 16 10
a 16 17 2
a 17 16 2
a 17 29 1
a 29 17 1
a 17 18 7
a 18 17 7
a 18 30 8
a 30 18 8
a 18 19 3
a 19 18 3
a 19 31 3
a 31 19 3
a 19 20 7
a 20 19 7
a 20 32 6
a 32 20 6
a 20 21 3
a 21 20 3
a 21 33 3
a 33 21 3
a 21 22 7
a 22 21 7
a 22 34 2
a 34 22 2
a 22 23 1
a 23 22 1
a 23 35 10
a 35 23 10
a 23 24 5
a 24 23 5
a 24 36 7
a 36 24 7
a 25 37 4
a 37 25 4
a 25 26 10
a 26 25 10
a 26 38 3
a 38 26 3
a 26 27 1
a 27 26 1
a 27 39 6
a 39 27 6
a 27 28 5
a 28 27 5
a 28 40 5
a 40 28 5
a 28 29 9
a 29 28 9
a 29 41 9
a 41 29 9
a 29 30 3
a 30 29 3
a 30 42 6
a 42 30 6
a 30 31 7
a 31 30 7
a 31 43 1
a 43 31 1
a 31 32 10
a 32 31 10
a 32 44 6
a 44 32 6
a 32 33 3
a 33 32 3
a 33 45 8
a 45 33 8
a 33 34 6
a 34 33 6
a 34 46 1
a 46 34 1
a 34 35 5
a 35 34 5
a 35 47 4
a 47 35 4
a 35 36 8
a 36 35 8
a 36 48 10
a 48 36 10
a 37 49 2
a 49 37 2
a 37 38 9
a 38 37 9
a 38 50 9
a 50 38 9
a 38 39 2
a 39 38 2
a 39 51 5
a 51 39 5
a 39 40 8
a 40 39 8
a 40 52 5
a 52 40 5
a 40 41 3
a 41 40 3
a 41 53 3
a 53 41 3
a 41 42 10
a 42 41 10
a 42 54 8
a 54 42 8
a 42 43 6
a 43 42 6
a 43 55 9
a 55 43 9
a 43 44 5
a 44 43 5
a 44 56 1
a 56 44 1
a 44 45 6
a 45 44 6
a 45 57 9
a 57 45 9
a 45 46 4
a 46 45 4
a 46 58 8
a 58 46 8
a 46 47 1
a 47 46 1
a 47 59 3
a 59 47 3
a 47 48 6
a 48 47 6
a 48 60 5
a 60 48 5
a 49 61 1
a 61 49 1
a 49 50 5
a 50 49 5
a 50 62 6
a 62 50 6
a 50 51 4
a 51 50 4
a 51 63 1
a 63 51 1
a 51 52 3
a 52 51 3
a 52 64 7
a 64 52 7
a 52 53 7
a 53 52 7
a 53 65 3
a 65 53 3
a 53 54 9
a 54 53 9
a 54 66 10
a 66 54 10
a 54 55 5
a 55 54 5
a 55 67 1
a 67 55 1
a 55 56 4
a 56 55 4
a 56 68 7
a 68 56 7
a 56 57 7
a 57 56 7
a 57 69 9
a 69 57 9
a 57 58 5
a 58 57 5
a 58 70 4
a 70 58 4
a 58 59 7
a 59 58 7
a 59 71 3
a 71 59 3
a 59 60 9
a 60 59 9
a 60 72 9
a 72 60 9
a 61 73 9
a 73 61 9
a 61 62 5
a 62 61 5
a 62 74 10
a 74 62 10
a 62 63 2
a 63 62 2
a 63 75 5
a 75 63 5
a 63 64 10
a 64 63 10
a 64 76 9
a 76 64 9
a 64 65 9
a 65 64 9
a 65 77 7
a 77 65 7
a 65 66 4
a 66 65 4
a 66 78 3
a 78 66 3
a 66 67 8
a 67 66 8
a 67 79 6
a 79 67 6
a 67 68 2
a 68 67 2
a 68 80 4
a 80 68 4
a 68 69 6
a 69 68 6
a 69 81 7
a 81 69 7
a 69 70 4
a 70 69 4
a 70 82 2
a 82 70 2
a 70 71 5
a 71 70 5
a 71 83 6
a 83 71 6
a 71 72 5
a 72 71 5
a 72 84 4
a 84 72 4
a 73 85 9
a 85 73 9
a 73 74 1
a 74 73 1
a 74 86 4
a 86 74 4
a 74 75 1
a 75 74 1
a 75 87 2
a 87 75 2
a 75 76 9
a 76 75 9
a 76 88 10
a 88 76 10
a 76 77 5
a 77 76 5
a 77 89 3
a 89 77 3
a 77 78 9
a 78 77 9
a 78 90 5
a 90 78 5
a 78 79 6
a 79 78 6
a 79 91 8
a 91 79 8
a 79 80 4
a 80 79 4
a 80 92 7
a 92 80 7
a 80 81 1
a 81 80 1
a 81 93 8
a 93 81 8
a 81 82 9
a 82 81 9
a 82 94 4
a 94 82 4
a 82 83 8
a 83 82 8
a 83 95 9
a 95 83 9
a 83 84 9
a 84 83 9
a 84 96 2
a 96 84 2
a 85 97 5
a 97 85 5
a 85 86 3
a 86 85 3
a 86 98 8
a 98 86 8
a 86 87 9
a 87 86 9
a 87 99 4
a 99 87 4
a 87 88 8
a 88 87 8
a 88 100 6
a 100 88 6
a 88 89 1
a 89 88 1
a 89 101 10
a 101 89 10
a 89 90 6
a 90 89 6
a 90 102 3
a 102 90 3
a 90 91 9
a 91 90 9
a 91 103 9
a 103 91 9
a 91 92 2
a 92 91 2
a 92 104 10
a 104 92 10
a 92 93 6
a 93 92 6
a 93 105 9
a 105 93 9
a 93 94 4
a 94 93 4
a 94 106 3
a 106 94 3
a 94 95 1
a 95 94 1
a 95 107 2
a 107 95 2
a 95 96 8
a 96 95 8
a 96 108 3
a 108 96 3
a 97 109 6
a 109 97 6
a 97 98 9
a 98 97 9
a 98 110 7
a 110 98 7
a 98 99 9
a 99 98 9
a 99 111 8
a 111 99 8
a 99 100 4
a 100 99 4
a 100 112 4
a 112 100 4
a 100 101 6
a 101 100 6
a 101 113 6
a 113 101 6
a 101 102 3
a 102 101 3
a 102 114 2
a 114 102 2
a 102 103 10
a 103 102 10
a 103 115 4
a 115 103 4
a 103 104 10
a 104 103 10
a 104 116 5
a 116 104 5
a 104 105 9
a 105 104 9
a 105 117 3
a 117 105 3
a 105 106 6
a 106 105 6
a 106 118 3
a 118 106 3
a 106 107 5
a 107 106 5
a 107 119 9
a 119 107 9
a 107 108 7
a 108 107 7
a 108 120 8
a 120 108 8
a 109 121 3
a 121 109 3
a 109 110 9
a 110 109 9
a 110 122 4
a 122 110 4
a 110 111 10
a 111 110 10
a 111 123 8
a 123 111 8
a 111 112 2
a 112 111 2
a 112 124 6
a 124 112 6
a 112 113 2
a 113 112 2
a 113 125 10
a 125 113 10
a 113 114 3
a 114 113 3
a 114 126 5
a 126 114 5
a 114 115 10
a 115 114 10
a 115 127 2
a 127 115 2
a 115 116 5
a 116 115 5
a 116 128 4
a 128 116 4
a 116 117 3
a 117 116 3
a 117 129 7
a 129 117 7
a 117 118 2
a 118 117 2
a 118 130 7
a 130 118 7
a 118 119 9
a 119 118 9
a 119 131 5
a 131 119 5
a 119 120 4
a 120 119 4
a 120 132 3
a 132 120 3
a 121 133 2
a 133 121 2
a 121 122 3
a 122 121 3
a 122 134 3
a 134 122 3
a 122 123 3
a 123 122 3
a 123 135 10
a 135 123 10
a 123 124 10
a 124 123 10
a 124 136 8
a 136 124 8
a 124 125 6
a 125 124 6
a 125 137 2
a 137 125 2
a 125 126 3
a 126 125 3
a 126 138 6
a 138 126 6
a 126 127 2
a 127 126 2
a 127 139 1
a 139 127 1
a 127 128 5
a 128 127 5
a 128 140 7
a 140 128 7
a 128 129 4
a 129 128 4
a 129 141 1
a 141 129 1
a 129 130 7
a 130 129 7
a 130 142 5
a 142 130 5
a 130 131 3
a 131 130 3
a 131 143 5
a 143 131 5
a 131 132 8
a 132 131 8
a 132 144 3
a 144 132 3
a 133 134 1
a 134 133 1
a 134 135 5
a 135 134 5
a 135 136 2
a 136 135 2
a 136 137 10
a 137 136 10
a 137 138 6
a 138 137 6
a 138 139 7
a 139 138 7
a 139 140 1
a 140 139 1
a 140 141 6
a 141 140 6
a 141 142 2
a 142 141 2
a 142 143 10
a 143 142 10
a 143 144 4
a 144 143 4
